32	0

0	1	2
8	1	3
10	2	4	6
5	1	5
9	1	7
6	1	7
4	1	8
5	2	9	10
10	1	11
7	1	11
2	1	12
2	1	13
5	1	14
8	1	15
7	2	16	17
9	1	18
2	1	18
6	1	19
7	3	20	21	23
4	1	22
4	1	22
8	2	24	25
7	2	24	25
10	1	26
8	1	26
5	1	27
7	1	28
4	1	29
8	1	30
4	1	31
6	1	32
0	0
